
n_res = 8;
rcap = [23, 21, 20, 23, 1463, 1517, 1603, 1500];
rtype = [1, 1, 1, 1, 2, 2, 2, 2];
n_tasks = 100;
modes =  [{1, 2, 3}, {4, 5, 6}, {7, 8, 9}, {10, 11, 12}, {13, 14, 15}, {16, 17, 18}, {19, 20, 21}, {22, 23, 24}, {25, 26, 27}, {28, 29, 30}, {31, 32, 33}, {34, 35, 36}, {37, 38, 39}, {40, 41, 42}, {43, 44, 45}, {46, 47, 48}, {49, 50, 51}, {52, 53, 54}, {55, 56, 57}, {58, 59, 60}, {61, 62, 63}, {64, 65, 66}, {67, 68, 69}, {70, 71, 72}, {73, 74, 75}, {76, 77, 78}, {79, 80, 81}, {82, 83, 84}, {85, 86, 87}, {88, 89, 90}, {91, 92, 93}, {94, 95, 96}, {97, 98, 99}, {100, 101, 102}, {103, 104, 105}, {106, 107, 108}, {109, 110, 111}, {112, 113, 114}, {115, 116, 117}, {118, 119, 120}, {121, 122, 123}, {124, 125, 126}, {127, 128, 129}, {130, 131, 132}, {133, 134, 135}, {136, 137, 138}, {139, 140, 141}, {142, 143, 144}, {145, 146, 147}, {148, 149, 150}, {151, 152, 153}, {154, 155, 156}, {157, 158, 159}, {160, 161, 162}, {163, 164, 165}, {166, 167, 168}, {169, 170, 171}, {172, 173, 174}, {175, 176, 177}, {178, 179, 180}, {181, 182, 183}, {184, 185, 186}, {187, 188, 189}, {190, 191, 192}, {193, 194, 195}, {196, 197, 198}, {199, 200, 201}, {202, 203, 204}, {205, 206, 207}, {208, 209, 210}, {211, 212, 213}, {214, 215, 216}, {217, 218, 219}, {220, 221, 222}, {223, 224, 225}, {226, 227, 228}, {229, 230, 231}, {232, 233, 234}, {235, 236, 237}, {238, 239, 240}, {241, 242, 243}, {244, 245, 246}, {247, 248, 249}, {250, 251, 252}, {253, 254, 255}, {256, 257, 258}, {259, 260, 261}, {262, 263, 264}, {265, 266, 267}, {268, 269, 270}, {271, 272, 273}, {274, 275, 276}, {277, 278, 279}, {280, 281, 282}, {283, 284, 285}, {286, 287, 288}, {289, 290, 291}, {292, 293, 294}, {295, 296, 297}, {298, 299, 300}];
succ =  [{22, 18, 17, 14, 13, 11}, {23, 22, 19, 17, 11, 10}, {23, 16, 11, 6}, {29, 27, 25, 23, 20, 19, 14}, {14, 6}, {32, 29, 25, 21, 19, 17}, {29, 27, 26, 19, 14}, {32, 31, 29, 26, 25, 17}, {23, 19, 18, 17}, {35, 29, 26, 24, 14}, {32, 30, 29, 27, 26, 25}, {40, 32, 27, 23, 20}, {30, 28, 27, 19}, {41, 32, 31, 30, 21}, {35, 31, 24, 21}, {40, 36, 35, 32, 31, 29, 26}, {30, 27, 24}, {40, 37, 35, 33, 32, 26}, {36, 31, 24}, {35, 33, 31, 26}, {42, 34, 28}, {40, 32, 26}, {49, 47, 42, 41, 37, 36, 35, 34}, {45, 43, 42, 41, 40, 37, 33}, {48, 37, 28}, {52, 49, 45, 43, 42, 41, 34}, {52, 43, 41, 36, 35, 33}, {45, 43, 40, 36, 33}, {54, 49, 45, 43, 42, 33}, {47, 45, 42, 38, 37, 36}, {54, 53, 52, 50, 49, 48, 47, 46, 45, 44}, {59, 54, 53, 52, 50, 49, 47, 44, 42}, {53, 47, 39, 38}, {54, 53, 39, 38}, {58, 54, 53, 50, 48, 46, 45}, {63, 59, 58, 57, 56, 54, 50, 44}, {59, 57, 56, 54, 53, 52, 44}, {58, 50, 46, 44}, {63, 62, 60, 58, 55, 50, 46}, {59, 57, 56, 52, 49, 44}, {63, 59, 58, 57, 54, 53, 50}, {66, 63, 62, 60, 56, 48}, {59, 53, 47}, {65, 64, 62, 60, 55, 51}, {79, 76, 75, 70, 69, 68, 66, 65, 64, 63, 62, 60}, {76, 70, 68, 61, 59, 57, 56}, {70, 66, 65, 63, 60, 58, 55}, {67, 57, 55, 51}, {76, 64, 62, 61, 55}, {79, 75, 73, 71, 70, 67, 66, 64, 61}, {85, 79, 76, 75, 73, 71, 70, 68, 61}, {92, 79, 76, 75, 73, 72, 71, 62}, {76, 71, 69, 65, 62}, {92, 75, 68, 64, 60}, {92, 85, 79, 77, 75, 74, 73, 71, 69, 68}, {75, 71, 69, 67, 65}, {85, 79, 78, 75, 74, 71, 69, 65}, {85, 79, 73, 61}, {92, 87, 79, 77, 69, 66}, {87, 73, 72, 71, 67}, {92, 87, 78, 77, 74, 69}, {87, 81, 67}, {85, 84, 83, 81, 78, 74, 72}, {90, 89, 88, 87, 84, 83, 80, 78, 77}, {100, 92, 91, 90, 86, 84, 83, 73}, {91, 90, 85, 83, 81, 80, 78, 74}, {85, 84, 83, 80, 78, 77, 74}, {100, 91, 87, 84, 83, 78, 72}, {100, 91, 84, 83, 72}, {100, 99, 91, 90, 89, 88, 87, 83, 82}, {100, 89, 88, 86, 84, 83, 82, 80}, {99, 90, 89, 88, 86, 82, 80}, {88, 82, 81, 80}, {100, 99, 98, 97, 96, 94, 89, 88}, {99, 98, 95, 94, 90, 89, 87}, {100, 98, 94, 91, 90, 88}, {100, 99, 97, 96, 95, 94, 91}, {97, 95, 93, 86, 82}, {97, 93, 88, 82}, {98, 97, 96, 95, 93}, {99, 96, 94, 89}, {98, 96, 94}, {97, 94, 93}, {95, 94, 93}, {100, 95, 94}, {98, 94}, {97, 93}, {95}, {93}, {96}, {93}, {93}, {}, {}, {}, {}, {}, {}, {}, {}];
n_opt = 300;
dur = [24, 26, 27, 9, 25, 26, 4, 6, 28, 10, 22, 23, 15, 19, 29, 5, 23, 27, 4, 11, 26, 3, 14, 29, 2, 17, 22, 11, 15, 18, 1, 6, 30, 13, 15, 25, 13, 14, 21, 5, 16, 21, 4, 10, 30, 14, 29, 30, 5, 20, 22, 7, 16, 28, 4, 22, 23, 5, 12, 13, 4, 5, 12, 10, 16, 29, 15, 29, 30, 4, 14, 24, 8, 11, 21, 18, 25, 26, 7, 15, 29, 1, 29, 30, 3, 15, 17, 27, 28, 30, 2, 21, 25, 1, 8, 22, 8, 22, 25, 6, 19, 30, 8, 19, 26, 1, 8, 14, 2, 13, 28, 9, 10, 20, 20, 23, 28, 2, 19, 20, 12, 18, 28, 3, 5, 7, 3, 16, 18, 1, 7, 8, 2, 3, 13, 6, 24, 26, 9, 17, 22, 4, 10, 28, 16, 26, 30, 4, 11, 29, 15, 25, 30, 17, 20, 22, 3, 6, 30, 19, 22, 26, 12, 13, 23, 3, 18, 21, 2, 4, 9, 5, 14, 15, 13, 19, 26, 7, 14, 24, 11, 27, 30, 1, 5, 23, 15, 16, 20, 2, 3, 21, 23, 24, 29, 6, 10, 14, 6, 11, 27, 11, 13, 26, 9, 10, 23, 8, 9, 14, 9, 15, 17, 5, 7, 29, 1, 9, 16, 5, 13, 28, 6, 7, 25, 5, 12, 13, 1, 6, 19, 7, 14, 28, 3, 7, 10, 4, 9, 11, 2, 5, 7, 16, 24, 28, 15, 19, 28, 2, 19, 28, 10, 14, 16, 4, 5, 6, 22, 27, 29, 7, 25, 28, 6, 25, 30, 7, 9, 28, 4, 8, 12, 8, 24, 28, 2, 7, 10, 2, 11, 19, 1, 2, 16, 17, 19, 30, 5, 6, 8, 9, 13, 27, 7, 16, 28, 8, 13, 18];
rreq = [|2, 1, 1, 5, 3, 3, 5, 4, 4, 3, 1, 1, 3, 3, 3, 1, 1, 1, 5, 4, 3, 5, 4, 4, 5, 5, 5, 2, 1, 1, 3, 3, 2, 5, 4, 4, 3, 3, 3, 5, 4, 4, 3, 3, 3, 5, 3, 2, 3, 3, 1, 4, 4, 4, 1, 1, 1, 5, 5, 5, 5, 4, 2, 5, 5, 5, 2, 1, 1, 3, 3, 3, 2, 2, 1, 2, 2, 2, 2, 1, 1, 1, 1, 1, 4, 2, 2, 4, 4, 4, 2, 1, 1, 5, 3, 3, 4, 4, 4, 4, 2, 1, 4, 3, 3, 2, 1, 1, 2, 1, 1, 4, 3, 2, 4, 4, 4, 3, 2, 2, 5, 3, 3, 2, 1, 1, 3, 3, 3, 5, 4, 3, 3, 1, 1, 4, 3, 1, 4, 2, 1, 4, 3, 3, 4, 2, 1, 5, 4, 3, 2, 1, 1, 4, 4, 4, 4, 4, 2, 4, 4, 4, 2, 2, 2, 5, 2, 1, 1, 1, 1, 4, 3, 3, 4, 4, 4, 2, 1, 1, 4, 3, 3, 4, 4, 4, 4, 4, 4, 4, 4, 4, 2, 2, 2, 4, 3, 2, 3, 3, 3, 5, 4, 3, 5, 4, 3, 2, 1, 1, 4, 3, 3, 4, 4, 3, 5, 4, 4, 2, 1, 1, 4, 3, 3, 1, 1, 1, 5, 4, 4, 5, 5, 5, 5, 4, 3, 4, 4, 2, 3, 3, 3, 4, 4, 3, 5, 2, 1, 4, 3, 3, 2, 2, 2, 4, 4, 4, 5, 4, 4, 3, 2, 2, 2, 2, 2, 5, 2, 2, 2, 2, 2, 4, 3, 3, 3, 3, 3, 5, 4, 3, 5, 4, 3, 4, 4, 4, 4, 4, 3, 2, 1, 1, 3, 2, 2, 3, 3, 3
 |4, 4, 3, 5, 3, 3, 2, 2, 2, 2, 1, 1, 4, 4, 4, 1, 1, 1, 4, 3, 3, 4, 2, 2, 3, 2, 2, 4, 4, 4, 3, 2, 2, 5, 5, 5, 5, 4, 4, 5, 4, 2, 5, 4, 4, 3, 2, 1, 4, 3, 3, 2, 2, 2, 2, 1, 1, 4, 4, 4, 4, 4, 4, 3, 3, 3, 5, 4, 3, 4, 3, 3, 3, 2, 1, 3, 3, 2, 4, 4, 4, 2, 1, 1, 3, 3, 2, 4, 3, 3, 3, 2, 1, 3, 2, 1, 2, 1, 1, 1, 1, 1, 4, 3, 2, 4, 3, 1, 3, 3, 1, 5, 2, 2, 5, 5, 5, 1, 1, 1, 1, 1, 1, 1, 1, 1, 1, 1, 1, 2, 1, 1, 5, 4, 3, 3, 3, 2, 3, 1, 1, 4, 2, 2, 2, 1, 1, 1, 1, 1, 5, 3, 3, 4, 4, 4, 4, 4, 3, 5, 4, 4, 3, 3, 1, 3, 2, 2, 4, 3, 2, 2, 2, 2, 2, 1, 1, 1, 1, 1, 5, 3, 3, 2, 1, 1, 4, 3, 2, 3, 2, 2, 4, 3, 1, 4, 4, 4, 2, 1, 1, 4, 4, 4, 5, 4, 4, 5, 4, 4, 3, 3, 3, 4, 3, 3, 3, 3, 3, 3, 3, 3, 3, 3, 2, 2, 2, 2, 4, 3, 3, 3, 1, 1, 2, 2, 1, 3, 3, 3, 4, 4, 3, 4, 2, 1, 2, 1, 1, 4, 3, 3, 2, 2, 2, 5, 2, 2, 3, 3, 2, 1, 1, 1, 3, 2, 1, 1, 1, 1, 5, 4, 4, 4, 4, 4, 5, 3, 3, 1, 1, 1, 5, 5, 5, 3, 2, 2, 3, 3, 2, 2, 2, 1, 3, 3, 3, 1, 1, 1
 |2, 2, 2, 4, 2, 2, 2, 2, 1, 1, 1, 1, 3, 3, 2, 4, 4, 3, 3, 3, 2, 3, 2, 2, 4, 4, 3, 5, 4, 4, 4, 4, 3, 4, 4, 4, 3, 2, 2, 1, 1, 1, 4, 3, 1, 1, 1, 1, 5, 3, 3, 2, 2, 1, 4, 4, 3, 3, 2, 2, 2, 1, 1, 1, 1, 1, 4, 3, 3, 1, 1, 1, 2, 1, 1, 2, 2, 2, 4, 4, 4, 3, 3, 3, 3, 2, 1, 4, 3, 2, 2, 1, 1, 5, 3, 3, 4, 3, 3, 3, 2, 2, 2, 2, 2, 4, 4, 3, 5, 3, 3, 4, 3, 3, 4, 3, 2, 5, 2, 1, 3, 2, 1, 2, 2, 2, 4, 3, 3, 4, 4, 4, 3, 3, 2, 5, 4, 3, 5, 5, 5, 1, 1, 1, 5, 2, 1, 4, 4, 4, 4, 3, 1, 5, 4, 4, 4, 3, 1, 3, 2, 2, 2, 1, 1, 3, 2, 2, 5, 3, 3, 5, 4, 4, 5, 4, 4, 5, 3, 3, 1, 1, 1, 5, 3, 3, 3, 2, 2, 3, 3, 3, 2, 1, 1, 4, 4, 2, 4, 4, 4, 5, 4, 4, 5, 3, 1, 4, 4, 4, 4, 4, 2, 4, 3, 3, 5, 4, 4, 4, 4, 4, 3, 1, 1, 5, 4, 4, 5, 4, 3, 2, 2, 2, 4, 3, 2, 3, 3, 2, 4, 4, 4, 3, 1, 1, 2, 2, 2, 3, 3, 3, 4, 4, 3, 5, 5, 5, 3, 3, 2, 5, 3, 2, 3, 3, 3, 2, 1, 1, 5, 4, 3, 3, 3, 3, 4, 4, 4, 2, 2, 2, 3, 2, 2, 3, 3, 2, 4, 4, 4, 1, 1, 1, 4, 4, 3, 2, 2, 2
 |3, 3, 3, 2, 1, 1, 5, 3, 3, 3, 2, 2, 4, 4, 3, 3, 2, 2, 4, 2, 2, 4, 2, 2, 1, 1, 1, 3, 2, 2, 4, 4, 4, 3, 2, 2, 3, 2, 1, 3, 2, 2, 4, 4, 3, 4, 3, 3, 3, 3, 1, 5, 5, 5, 5, 4, 3, 5, 4, 4, 4, 2, 2, 2, 1, 1, 2, 2, 2, 3, 2, 2, 5, 4, 3, 3, 3, 2, 3, 3, 3, 5, 4, 3, 3, 3, 1, 4, 2, 2, 4, 2, 2, 5, 4, 3, 2, 1, 1, 5, 4, 4, 5, 5, 5, 4, 3, 3, 2, 2, 2, 3, 3, 3, 4, 3, 3, 1, 1, 1, 3, 3, 3, 2, 1, 1, 3, 3, 3, 4, 3, 1, 4, 4, 4, 4, 3, 3, 5, 5, 5, 2, 1, 1, 3, 3, 2, 2, 2, 2, 1, 1, 1, 5, 4, 2, 3, 2, 2, 2, 1, 1, 3, 2, 2, 5, 2, 2, 2, 2, 2, 4, 4, 3, 3, 2, 2, 3, 3, 3, 3, 2, 1, 2, 2, 2, 5, 5, 5, 2, 2, 2, 4, 3, 3, 4, 3, 1, 3, 3, 3, 3, 3, 2, 2, 2, 2, 2, 2, 2, 1, 1, 1, 5, 2, 2, 5, 4, 3, 5, 3, 2, 5, 4, 4, 3, 3, 1, 3, 2, 2, 4, 3, 2, 3, 3, 3, 5, 3, 3, 4, 3, 1, 4, 3, 3, 4, 4, 4, 2, 2, 2, 5, 4, 4, 5, 3, 2, 4, 3, 2, 3, 2, 2, 3, 2, 2, 3, 2, 2, 5, 3, 2, 4, 4, 4, 4, 4, 4, 3, 3, 3, 2, 1, 1, 3, 2, 2, 4, 4, 4, 3, 2, 2, 4, 4, 4, 3, 3, 1
 |22, 20, 12, 15, 13, 13, 24, 23, 20, 4, 3, 2, 28, 17, 9, 25, 18, 17, 25, 20, 13, 4, 3, 3, 8, 8, 7, 27, 27, 26, 8, 5, 5, 22, 18, 13, 20, 19, 19, 9, 9, 9, 14, 13, 13, 11, 10, 9, 16, 14, 10, 23, 21, 15, 22, 20, 10, 20, 18, 18, 22, 15, 8, 17, 15, 8, 13, 13, 12, 19, 13, 10, 25, 24, 20, 22, 19, 15, 10, 9, 7, 20, 19, 18, 22, 22, 17, 11, 9, 6, 26, 19, 12, 22, 17, 10, 8, 7, 6, 10, 9, 6, 10, 8, 4, 30, 14, 7, 21, 19, 18, 20, 17, 15, 20, 16, 13, 11, 7, 5, 23, 17, 10, 9, 8, 2, 16, 11, 3, 7, 6, 4, 26, 25, 25, 15, 15, 15, 10, 9, 6, 24, 24, 24, 14, 8, 5, 28, 15, 10, 18, 10, 9, 23, 23, 16, 26, 24, 24, 4, 3, 3, 23, 20, 16, 23, 21, 17, 20, 12, 7, 20, 12, 7, 6, 4, 2, 24, 11, 8, 23, 22, 21, 13, 12, 12, 17, 15, 11, 30, 21, 16, 15, 13, 12, 23, 18, 17, 14, 8, 6, 17, 14, 13, 16, 15, 9, 29, 18, 8, 4, 3, 1, 23, 13, 8, 23, 16, 7, 19, 18, 16, 20, 19, 17, 23, 15, 11, 18, 14, 11, 11, 6, 3, 19, 19, 19, 14, 12, 4, 18, 17, 15, 8, 6, 1, 22, 21, 19, 16, 12, 8, 19, 12, 7, 17, 14, 12, 17, 13, 9, 25, 23, 18, 14, 12, 11, 11, 10, 7, 14, 14, 13, 27, 25, 24, 14, 8, 3, 26, 16, 10, 19, 17, 17, 24, 14, 12, 18, 13, 11, 13, 13, 12, 14, 13, 11, 23, 17, 16
 |15, 15, 12, 24, 11, 4, 5, 5, 5, 19, 16, 12, 18, 18, 18, 22, 13, 6, 15, 15, 9, 28, 21, 12, 29, 19, 11, 28, 27, 27, 19, 14, 7, 17, 15, 9, 24, 24, 20, 13, 13, 7, 19, 18, 18, 23, 16, 6, 22, 15, 2, 25, 24, 24, 4, 4, 3, 18, 12, 5, 26, 26, 26, 16, 13, 11, 24, 19, 13, 18, 12, 12, 16, 11, 3, 19, 10, 7, 18, 17, 16, 24, 11, 7, 16, 12, 8, 22, 22, 21, 20, 17, 15, 21, 14, 8, 24, 24, 16, 15, 14, 13, 30, 25, 24, 14, 13, 13, 26, 24, 23, 25, 23, 19, 18, 11, 5, 14, 13, 10, 15, 15, 15, 18, 14, 12, 19, 13, 13, 28, 27, 26, 1, 1, 1, 19, 14, 2, 27, 20, 17, 13, 6, 4, 10, 9, 6, 6, 4, 1, 22, 18, 14, 10, 10, 10, 18, 15, 12, 22, 12, 5, 27, 16, 14, 24, 22, 18, 21, 16, 8, 12, 7, 5, 11, 9, 7, 25, 15, 4, 17, 14, 12, 22, 16, 8, 5, 3, 3, 26, 20, 16, 25, 24, 23, 13, 8, 2, 16, 15, 11, 22, 21, 15, 27, 20, 10, 26, 19, 8, 16, 15, 13, 16, 14, 7, 28, 26, 26, 8, 7, 7, 19, 17, 14, 20, 18, 7, 22, 22, 22, 26, 25, 25, 7, 7, 6, 26, 23, 18, 11, 10, 10, 19, 17, 13, 23, 15, 10, 20, 12, 7, 27, 24, 21, 18, 13, 9, 22, 21, 18, 24, 16, 8, 8, 8, 6, 18, 16, 13, 5, 3, 3, 19, 16, 16, 16, 8, 8, 13, 11, 6, 4, 4, 3, 27, 17, 13, 13, 12, 11, 27, 24, 18, 28, 25, 22, 9, 9, 7
 |23, 20, 17, 14, 8, 4, 11, 7, 5, 20, 16, 15, 19, 12, 3, 15, 12, 11, 28, 27, 26, 14, 14, 14, 23, 22, 21, 21, 21, 21, 24, 23, 19, 2, 2, 2, 22, 22, 21, 15, 14, 5, 4, 3, 2, 19, 18, 17, 27, 25, 25, 23, 20, 10, 21, 20, 12, 24, 24, 24, 24, 23, 21, 22, 13, 13, 27, 23, 20, 26, 16, 10, 27, 22, 21, 18, 16, 16, 22, 12, 12, 6, 5, 4, 19, 15, 12, 19, 17, 16, 19, 17, 17, 6, 6, 5, 16, 13, 6, 10, 6, 3, 24, 20, 9, 25, 22, 20, 22, 17, 11, 21, 11, 5, 19, 14, 13, 29, 27, 27, 22, 14, 9, 15, 13, 11, 23, 17, 7, 6, 4, 1, 21, 17, 15, 23, 17, 14, 17, 17, 14, 17, 17, 16, 25, 21, 15, 27, 19, 15, 25, 19, 18, 25, 24, 24, 17, 9, 5, 15, 15, 13, 26, 17, 14, 26, 19, 3, 21, 21, 21, 17, 15, 8, 19, 15, 8, 20, 17, 11, 9, 9, 8, 27, 21, 21, 26, 15, 4, 25, 19, 11, 23, 17, 11, 26, 20, 9, 23, 20, 11, 15, 12, 11, 25, 23, 22, 18, 17, 10, 1, 1, 1, 15, 12, 10, 15, 15, 12, 22, 19, 16, 14, 10, 6, 7, 7, 7, 28, 24, 24, 23, 16, 15, 27, 26, 24, 27, 23, 19, 21, 17, 12, 15, 9, 5, 23, 17, 17, 19, 15, 11, 26, 19, 6, 25, 20, 12, 24, 21, 15, 20, 17, 12, 26, 22, 15, 6, 5, 4, 22, 18, 13, 27, 23, 23, 17, 13, 8, 16, 12, 8, 20, 18, 13, 11, 9, 4, 28, 21, 18, 5, 5, 5, 24, 12, 9, 11, 10, 8
 |26, 20, 12, 28, 20, 9, 27, 22, 17, 14, 9, 9, 19, 18, 18, 4, 3, 3, 25, 23, 18, 26, 18, 9, 14, 13, 13, 28, 21, 12, 28, 26, 23, 7, 7, 5, 23, 21, 19, 11, 7, 6, 15, 15, 12, 14, 11, 10, 24, 16, 12, 24, 17, 13, 28, 23, 20, 25, 16, 3, 5, 3, 1, 6, 4, 3, 15, 10, 3, 24, 22, 19, 19, 16, 7, 19, 15, 6, 3, 2, 2, 21, 17, 14, 11, 10, 7, 27, 27, 27, 11, 10, 7, 12, 6, 6, 20, 18, 16, 28, 25, 24, 25, 19, 19, 17, 12, 12, 23, 20, 17, 4, 3, 2, 17, 14, 13, 17, 16, 6, 20, 16, 14, 29, 27, 26, 27, 22, 16, 20, 19, 18, 13, 10, 7, 23, 19, 10, 14, 12, 10, 27, 27, 27, 6, 6, 6, 27, 26, 26, 7, 6, 5, 20, 15, 11, 1, 1, 1, 16, 6, 2, 24, 12, 4, 7, 6, 6, 24, 20, 18, 27, 20, 14, 20, 19, 13, 24, 23, 21, 25, 24, 21, 7, 6, 3, 23, 17, 16, 13, 12, 9, 17, 16, 15, 11, 11, 8, 13, 9, 6, 28, 27, 26, 14, 9, 8, 25, 18, 16, 3, 2, 1, 22, 19, 14, 26, 20, 17, 25, 19, 18, 11, 11, 9, 24, 23, 19, 25, 23, 21, 29, 25, 20, 19, 17, 17, 26, 20, 19, 19, 17, 14, 4, 2, 1, 6, 6, 2, 28, 21, 13, 11, 9, 9, 15, 10, 6, 20, 19, 18, 8, 5, 4, 15, 10, 5, 11, 10, 7, 7, 6, 4, 28, 27, 25, 20, 19, 16, 26, 17, 7, 21, 11, 8, 21, 19, 9, 20, 17, 9, 20, 16, 10, 24, 19, 11, 7, 5, 4|];